1
5
13
18
25
17
19
26
28
29
30
55
54
64
68
75
62
65
69
82
93
98
112
114
121
118
123
130
131
129
116
120
122
117
111
103
104
97
96
95
90
91
73
61
41
40
42
24
44
43
59
60
72
80
83
88
92
94
99
102
107
108
109
110
115
119
128
127
126
125
124
113
106
100
105
101
87
84
86
85
81
78
77
89
74
53
45
46
27
16
12
15
14
20
31
32
21
33
50
51
52
47
48
49
34
35
22
37
36
58
57
66
79
71
76
70
63
67
56
39
38
23
11
4
10
9
3
2
8
7
